
Gurobi 11.0.2 (linux64) logging started Tue 03 Dec 2024 09:05:26 AM CET

Set parameter LogFile to value "./res/knapPI_11_50_1000/knapPI_11_50_1000_48/grb_dom.log"
Set parameter Presolve to value 0
Set parameter Aggregate to value 0
Set parameter Heuristics to value 0
Set parameter LPWarmStart to value 0
Set parameter NLPHeur to value 0
Set parameter PreDepRow to value 0
Set parameter PreDual to value 0
Set parameter RINS to value 0
Set parameter Symmetry to value 0
Set parameter NodeLimit to value 1
Set parameter Threads to value 1

Gurobi 11.0.2 (linux64) logging started Tue 03 Dec 2024 09:05:27 AM CET

Set parameter LogFile to value "./res/knapPI_11_50_1000/knapPI_11_50_1000_48/grb_dom.log"
Set parameter NLPHeur to value 0
Set parameter LPWarmStart to value 0
Set parameter PreDepRow to value 0
Set parameter Symmetry to value 0
Set parameter Presolve to value 0
Gurobi Optimizer version 11.0.2 build v11.0.2rc0 (linux64 - "Pop!_OS 20.04 LTS")

CPU model: Intel(R) Core(TM) i7-8650U CPU @ 1.90GHz, instruction set [SSE2|AVX|AVX2]
Thread count: 4 physical cores, 4 logical processors, using up to 1 threads

Optimize a model with 15165 rows, 50 columns and 223648 nonzeros
Model fingerprint: 0x8d89c657
Variable types: 0 continuous, 50 integer (50 binary)
Coefficient statistics:
  Matrix range     [1e+00, 2e+03]
  Objective range  [5e+01, 2e+03]
  Bounds range     [0e+00, 0e+00]
  RHS range        [2e+04, 2e+04]
Variable types: 0 continuous, 50 integer (50 binary)

Root relaxation: objective 1.664565e+04, 29 iterations, 0.10 seconds (0.04 work units)

    Nodes    |    Current Node    |     Objective Bounds      |     Work
 Expl Unexpl |  Obj  Depth IntInf | Incumbent    BestBd   Gap | It/Node Time

     0     0 16645.6512    0    1          - 16645.6512      -     -    0s
     0     0 16645.6512    0    1          - 16645.6512      -     -    0s
     0     0 16645.6512    0    2          - 16645.6512      -     -    0s
     0     0 16645.6512    0    2          - 16645.6512      -     -    0s
     0     0 16645.6512    0    5          - 16645.6512      -     -    0s
     0     0 16645.6512    0    5          - 16645.6512      -     -    1s
     0     0 16645.6512    0    6          - 16645.6512      -     -    1s
     0     0 16645.6512    0    7          - 16645.6512      -     -    1s
     0     0 16645.6512    0    7          - 16645.6512      -     -    1s
     0     2 16645.6512    0    7          - 16645.6512      -     -    1s

Cutting planes:
  Cover: 1
  MIR: 2
  StrongCG: 1
  RLT: 2

Explored 1 nodes (44 simplex iterations) in 2.00 seconds (1.37 work units)
Thread count was 1 (of 4 available processors)

Solution count 0

Node limit reached
Best objective -, best bound 1.663800000000e+04, gap -

User-callback calls 1279, time in user-callback 0.01 sec
opt = false
obj = 16645.6512
nb_dom_cuts = 15164
solved_time = 2.001
opt_val = 16591.0
